(set-logic QF_SLIA)
(set-option :produce-models true)
(declare-const X String)
; ^(([1-9]{1}[0-9]{0,5}([.]{1}[0-9]{0,2})?)|(([0]{1}))([.]{1}[0-9]{0,2})?)$
(assert (not (str.in_re X (re.++ (re.union (re.++ ((_ re.loop 1 1) (re.range "1" "9")) ((_ re.loop 0 5) (re.range "0" "9")) (re.opt (re.++ ((_ re.loop 1 1) (str.to_re ".")) ((_ re.loop 0 2) (re.range "0" "9"))))) (re.++ ((_ re.loop 1 1) (str.to_re "0")) (re.opt (re.++ ((_ re.loop 1 1) (str.to_re ".")) ((_ re.loop 0 2) (re.range "0" "9")))))) (str.to_re "\u{0a}")))))
; /\u{2e}js\u{3f}[a-zA-Z0-9]{9,20}=Mozilla\u{2f}/UGi
(assert (not (str.in_re X (re.++ (str.to_re "/.js?") ((_ re.loop 9 20) (re.union (re.range "a" "z") (re.range "A" "Z") (re.range "0" "9"))) (str.to_re "=Mozilla//UGi\u{0a}")))))
; /filename=[^\n]*\u{2e}pdf/i
(assert (str.in_re X (re.++ (str.to_re "/filename=") (re.* (re.comp (str.to_re "\u{0a}"))) (str.to_re ".pdf/i\u{0a}"))))
(assert (> (str.len X) 10))
(check-sat)
